[[273881,314282302,357915090,440342565,516438491,579491364,645885730,693183808,767660199,815867043,974083809],[5969467,62622238,407585305,440670104,527210532,589635634,673570427,749375247,773111881,833523676,972501576],[10309146,121449557,327640335,488199413,528065248,590253108,676860803,759585529,800199097,835595245,957567427],[46657026,154649474,212854333,341111629,576066437,605239550,692231696,766084831,810987938,949970768,954481195],[63530088,203995979,267058550,388155241,451293411,541634076,611452932,715804572,791760900,864079663,944605364],[74930784,205437284,268182749,391796692,464273198,553458491,632147771,719925630,796948325,899683579,938864215],[90024170,205833528,273437577,399513040,476691087,556848802,635325627,734837444,797429306,903722549,926509927],[101185644,207659617,297688535,403857021,487195041,571811436,639442135,749112129,797645767,907889722,913442868],[56724914,160545433,176750242,185489096,219390769,231779694,259491019,260479787,319428814,417445747,437313477,515111873]]